<number of tasks>
20


<number of equipment>
5


<cycle time>
1000


<investment costs>
1,29826
2,29373
3,17221
4,28770
5,5127


<task times>
1,-1,-1,480,253,-1
2,190,202,-1,215,-1
3,244,237,-1,-1,596
4,246,326,-1,-1,670
5,194,287,-1,-1,673
6,-1,-1,629,353,-1
7,385,227,-1,225,-1
8,219,257,-1,-1,724
9,408,363,-1,-1,782
10,258,238,-1,275,-1
11,498,464,-1,249,-1
12,373,337,-1,-1,729
13,268,232,-1,-1,653
14,191,292,-1,344,-1
15,256,267,-1,-1,716
16,281,254,-1,322,-1
17,324,392,-1,-1,583
18,451,459,-1,-1,709
19,-1,-1,512,369,-1
20,302,229,-1,252,-1


<precedence relations>
1,5
1,8
1,15
2,4
2,6
2,7
3,5
3,7
3,8
4,10
6,9
7,9
7,10
8,12
9,11
9,12
9,13
9,14
10,12
10,15
10,18
12,16
12,17
13,18
14,20
17,19
18,20


<task types>
1,1
2,2
3,3
4,3
5,3
6,1
7,2
8,3
9,3
10,2
11,2
12,3
13,3
14,2
15,3
16,2
17,3
18,3
19,1
20,2


<line depot>
1,3
2,1
3,1
4,3
5,7


<processing costs>
1,14400
2,14400
3,7200
4,14400
5,7200


<saving costs>
1,2982
2,2937
3,1722
4,2877
5,512


<end>
